1189.37 0
0 96 93 94 97 114 18 90 91 89 92 87 111 82 119 120 0
0 67 69 70 71 75 72 74 73 98 110 116 100 99 101 102 95 0
0 52 57 54 53 55 58 56 79 80 78 77 76 68 103 104 107 106 105 0
0 60 63 66 64 62 61 65 59 51 50 48 45 43 40 115 0
0 37 38 39 42 41 44 47 46 49 29 32 35 36 34 33 30 31 28 23 20 108 118 0
0 81 5 3 4 10 11 15 14 13 7 6 83 113 117 84 112 85 86 88 0
0 109 21 26 25 27 24 22 19 16 17 12 8 9 2 1 0